Route #1: 27 26 8 2 46 
Route #2: 28 31 25 47 
Route #3: 9 50 34 49 38 
Route #4: 45 33 10 39 30 21 
Route #5: 5 29 16 11 32 
Route #6: 20 35 36 3 22 
Route #7: 18 6 48 1 
Route #8: 24 43 7 23 14 
Route #9: 4 44 15 37 17 12 
Route #10: 13 41 40 19 42 
cost 869.154
execution_time 44.863
